53419
7 37 368
37 43 690
43 18 1282
18 48 934
48 47 761
47 16 415
16 22 619
22 20 176
20 28 516
28 21 544
21 9 117
9 8 803
8 13 471
13 1 433
1 15 929
15 38 451
38 45 214
45 35 402
35 14 679
14 51 631
51 44 722
44 10 436
10 24 545
24 30 299
30 26 4460
26 0 4123
0 32 7621
32 41 4807
41 11 2092
11 17 768
17 3 606
3 29 380
29 46 944
46 53 491
53 33 401
33 52 396
52 25 1237
25 54 397
54 27 487
27 5 404
5 2 385
2 42 1096
42 12 790
12 50 644
50 39 1042
39 6 1176
6 36 517
36 19 714
19 49 763
49 23 868
23 34 296
34 4 323
4 40 714
40 31 362
31 7 678
